10
0  8 50 31 12 48 36  2  5 39 
 8  0 38  9 33 37 22  6  4 14 
50 38  0 11 55  1 23 46 41 17
31  9 11  0 44 13 16 19 25 18 
12 33 55 44  0 54 53 30 28 45
48 37  1 13 54  0 26 47 40 24 
36 22 23 16 53 26  0 29 35 34 
 2  6 46 19 30 47 29  0  3 27 
 5  4 41 25 28 40 35  3  0 20 
39 14 17 18 45 24 34 27 20  0 